unsat
(:conflicts            1
 :max-generation       1
 :max-memory           43.14
 :memory               25.59
 :mk-bool-var          24866
 :mk-clause            2134
 :mk-clause-binary     12512
 :num-allocs           235502528
 :num-checks           1
 :quant-instantiations 2435
 :rlimit-count         1164961
 :time                 0.12)
